* #variable= 797 #constraint= 279
min: +55 x1 +61 x2 +37 x3 +41 x4 +53 x5 +33 x6 +23 x7 +54 x8 +47 x9 +28 x10 +10 x11 +55 x12 +33 x13 +19 x14 +75 x15 +43 x16 +22 x17 +66 x18 +7 x19 +13 x20 +34 x21 +56 x22 +61 x23 +33 x24 +42 x25 +60 x26 +15 x27 +39 x28 +59 x29 +25 x30 +43 x31 +33 x32 +56 x33 +37 x34 +19 x35 +42 x36 +65 x37 +45 x38 +6 x39 +52 x40 +22 x41 +10 x42 +25 x43 +41 x44 +41 x45 +75 x46 +60 x47 +65 x48 +45 x49 +59 x50 +17 x51 +70 x52 +74 x53 +41 x54 +31 x55 +53 x56 +43 x57 +15 x58 +45 x59 +45 x60 +41 x61 +46 x62 +36 x63 +50 x64 +27 x65 +47 x66 +33 x67 +22 x68 +39 x69 +6 x70 +59 x71 +41 x72 +46 x73 +23 x74 +15 x75 +19 x76 +35 x77 +23 x78 +66 x79 +59 x80 +52 x81 +17 x82 +46 x83 +46 x84 +62 x85 +62 x86 +31 x87 +14 x88 +54 x89 +7 x90 +25 x91 +22 x92 +70 x93 +36 x94 +23 x95 +62 x96 +19 x97 +31 x98 +54 x99 +47 x100 +13 x101 +43 x102 +10 x103 +74 x104 +50 x105 +15 x106 +62 x107 +19 x108 +33 x109 +51 x110 +28 x111 +34 x112 +33 x113 +25 x114 +41 x115 +27 x116 +19 x117 +31 x118 +31 x119 +33 x120 +24 x121 +10 x122 +56 x123 +56 x124 +41 x125 +31 x126 +47 x127 +35 x128 +14 x129 +54 x130 +51 x131 +24 x132 ;

+55 x1 +61 x2 +37 x3 +41 x4 +53 x5 +33 x6 +23 x7 +54 x8 +47 x9 +28 x10 +10 x11 +55 x12 +33 x13 +19 x14 +75 x15 +43 x16 +22 x17 +66 x18 +7 x19 +13 x20 +34 x21 +56 x22 +61 x23 +33 x24 +42 x25 +60 x26 +15 x27 +39 x28 +59 x29 +25 x30 +43 x31 +33 x32 +56 x33 +37 x34 +19 x35 +42 x36 +65 x37 +45 x38 +6 x39 +52 x40 +22 x41 +10 x42 +25 x43 +41 x44 +41 x45 +75 x46 +60 x47 +65 x48 +45 x49 +59 x50 +17 x51 +70 x52 +74 x53 +41 x54 +31 x55 +53 x56 +43 x57 +15 x58 +45 x59 +45 x60 +41 x61 +46 x62 +36 x63 +50 x64 +27 x65 +47 x66 +33 x67 +22 x68 +39 x69 +6 x70 +59 x71 +41 x72 +46 x73 +23 x74 +15 x75 +19 x76 +35 x77 +23 x78 +66 x79 +59 x80 +52 x81 +17 x82 +46 x83 +46 x84 +62 x85 +62 x86 +31 x87 +14 x88 +54 x89 +7 x90 +25 x91 +22 x92 +70 x93 +36 x94 +23 x95 +62 x96 +19 x97 +31 x98 +54 x99 +47 x100 +13 x101 +43 x102 +10 x103 +74 x104 +50 x105 +15 x106 +62 x107 +19 x108 +33 x109 +51 x110 +28 x111 +34 x112 +33 x113 +25 x114 +41 x115 +27 x116 +19 x117 +31 x118 +31 x119 +33 x120 +24 x121 +10 x122 +56 x123 +56 x124 +41 x125 +31 x126 +47 x127 +35 x128 +14 x129 +54 x130 +51 x131 +24 x132 >= 0 ;

+1 x1 +1 x2 +1 x3 +1 x4 +1 x5 +1 x6 +1 x7 +1 x8 +1 x9 +1 x10 +1 x11 = 1 ;
+1 x12 +1 x13 +1 x14 +1 x15 +1 x16 +1 x17 +1 x18 +1 x19 +1 x20 +1 x21 +1 x22 = 1 ;
+1 x23 +1 x24 +1 x25 +1 x26 +1 x27 +1 x28 +1 x29 +1 x30 +1 x31 +1 x32 +1 x33 = 1 ;
+1 x34 +1 x35 +1 x36 +1 x37 +1 x38 +1 x39 +1 x40 +1 x41 +1 x42 +1 x43 +1 x44 = 1 ;
+1 x45 +1 x46 +1 x47 +1 x48 +1 x49 +1 x50 +1 x51 +1 x52 +1 x53 +1 x54 +1 x55 = 1 ;
+1 x56 +1 x57 +1 x58 +1 x59 +1 x60 +1 x61 +1 x62 +1 x63 +1 x64 +1 x65 +1 x66 = 1 ;
+1 x67 +1 x68 +1 x69 +1 x70 +1 x71 +1 x72 +1 x73 +1 x74 +1 x75 +1 x76 +1 x77 = 1 ;
+1 x78 +1 x79 +1 x80 +1 x81 +1 x82 +1 x83 +1 x84 +1 x85 +1 x86 +1 x87 +1 x88 = 1 ;
+1 x89 +1 x90 +1 x91 +1 x92 +1 x93 +1 x94 +1 x95 +1 x96 +1 x97 +1 x98 +1 x99 = 1 ;
+1 x100 +1 x101 +1 x102 +1 x103 +1 x104 +1 x105 +1 x106 +1 x107 +1 x108 +1 x109 +1 x110 = 1 ;
+1 x111 +1 x112 +1 x113 +1 x114 +1 x115 +1 x116 +1 x117 +1 x118 +1 x119 +1 x120 +1 x121 = 1 ;
+1 x122 +1 x123 +1 x124 +1 x125 +1 x126 +1 x127 +1 x128 +1 x129 +1 x130 +1 x131 +1 x132 = 1 ;

+1 x12 +1 x23 +1 x34 +1 x45 +1 x56 +1 x67 +1 x78 +1 x89 +1 x100 +1 x111 +1 x122 = 1 ;
+1 x1 +1 x24 +1 x35 +1 x46 +1 x57 +1 x68 +1 x79 +1 x90 +1 x101 +1 x112 +1 x123 = 1 ;
+1 x2 +1 x13 +1 x36 +1 x47 +1 x58 +1 x69 +1 x80 +1 x91 +1 x102 +1 x113 +1 x124 = 1 ;
+1 x3 +1 x14 +1 x25 +1 x48 +1 x59 +1 x70 +1 x81 +1 x92 +1 x103 +1 x114 +1 x125 = 1 ;
+1 x4 +1 x15 +1 x26 +1 x37 +1 x60 +1 x71 +1 x82 +1 x93 +1 x104 +1 x115 +1 x126 = 1 ;
+1 x5 +1 x16 +1 x27 +1 x38 +1 x49 +1 x72 +1 x83 +1 x94 +1 x105 +1 x116 +1 x127 = 1 ;
+1 x6 +1 x17 +1 x28 +1 x39 +1 x50 +1 x61 +1 x84 +1 x95 +1 x106 +1 x117 +1 x128 = 1 ;
+1 x7 +1 x18 +1 x29 +1 x40 +1 x51 +1 x62 +1 x73 +1 x96 +1 x107 +1 x118 +1 x129 = 1 ;
+1 x8 +1 x19 +1 x30 +1 x41 +1 x52 +1 x63 +1 x74 +1 x85 +1 x108 +1 x119 +1 x130 = 1 ;
+1 x9 +1 x20 +1 x31 +1 x42 +1 x53 +1 x64 +1 x75 +1 x86 +1 x97 +1 x120 +1 x131 = 1 ;
+1 x10 +1 x21 +1 x32 +1 x43 +1 x54 +1 x65 +1 x76 +1 x87 +1 x98 +1 x109 +1 x132 = 1 ;
+1 x11 +1 x22 +1 x33 +1 x44 +1 x55 +1 x66 +1 x77 +1 x88 +1 x99 +1 x110 +1 x121 = 1 ;

+1 x133 +2 x134 +4 x135 +8 x136 +16 x137  >= 0 ;
+1 x138 +2 x139 +4 x140 +8 x141 +16 x142  >= 0 ;
+1 x143 +2 x144 +4 x145 +8 x146 +16 x147  >= 0 ;
+1 x148 +2 x149 +4 x150 +8 x151 +16 x152  >= 0 ;
+1 x153 +2 x154 +4 x155 +8 x156 +16 x157  >= 0 ;
+1 x158 +2 x159 +4 x160 +8 x161 +16 x162  >= 0 ;
+1 x163 +2 x164 +4 x165 +8 x166 +16 x167  >= 0 ;
+1 x168 +2 x169 +4 x170 +8 x171 +16 x172  >= 0 ;
+1 x173 +2 x174 +4 x175 +8 x176 +16 x177  >= 0 ;
+1 x178 +2 x179 +4 x180 +8 x181 +16 x182  >= 0 ;
+1 x183 +2 x184 +4 x185 +8 x186 +16 x187  >= 0 ;
+1 x188 +2 x189 +4 x190 +8 x191 +16 x192  >= 0 ;


+1 x193 +2 x194 +4 x195 +8 x196 +16 x197  >= 0 ;
+1 x133 +2 x134 +4 x135 +8 x136 +16 x137 -1 x138 -2 x139 -4 x140 -8 x141 -16 x142 +12 x1 +1 x193 +2 x194 +4 x195 +8 x196 +16 x197  = 11 ;

+1 x198 +2 x199 +4 x200 +8 x201 +16 x202  >= 0 ;
+1 x133 +2 x134 +4 x135 +8 x136 +16 x137 -1 x143 -2 x144 -4 x145 -8 x146 -16 x147 +12 x2 +1 x198 +2 x199 +4 x200 +8 x201 +16 x202  = 11 ;

+1 x203 +2 x204 +4 x205 +8 x206 +16 x207  >= 0 ;
+1 x133 +2 x134 +4 x135 +8 x136 +16 x137 -1 x148 -2 x149 -4 x150 -8 x151 -16 x152 +12 x3 +1 x203 +2 x204 +4 x205 +8 x206 +16 x207  = 11 ;

+1 x208 +2 x209 +4 x210 +8 x211 +16 x212  >= 0 ;
+1 x133 +2 x134 +4 x135 +8 x136 +16 x137 -1 x153 -2 x154 -4 x155 -8 x156 -16 x157 +12 x4 +1 x208 +2 x209 +4 x210 +8 x211 +16 x212  = 11 ;

+1 x213 +2 x214 +4 x215 +8 x216 +16 x217  >= 0 ;
+1 x133 +2 x134 +4 x135 +8 x136 +16 x137 -1 x158 -2 x159 -4 x160 -8 x161 -16 x162 +12 x5 +1 x213 +2 x214 +4 x215 +8 x216 +16 x217  = 11 ;

+1 x218 +2 x219 +4 x220 +8 x221 +16 x222  >= 0 ;
+1 x133 +2 x134 +4 x135 +8 x136 +16 x137 -1 x163 -2 x164 -4 x165 -8 x166 -16 x167 +12 x6 +1 x218 +2 x219 +4 x220 +8 x221 +16 x222  = 11 ;

+1 x223 +2 x224 +4 x225 +8 x226 +16 x227  >= 0 ;
+1 x133 +2 x134 +4 x135 +8 x136 +16 x137 -1 x168 -2 x169 -4 x170 -8 x171 -16 x172 +12 x7 +1 x223 +2 x224 +4 x225 +8 x226 +16 x227  = 11 ;

+1 x228 +2 x229 +4 x230 +8 x231 +16 x232  >= 0 ;
+1 x133 +2 x134 +4 x135 +8 x136 +16 x137 -1 x173 -2 x174 -4 x175 -8 x176 -16 x177 +12 x8 +1 x228 +2 x229 +4 x230 +8 x231 +16 x232  = 11 ;

+1 x233 +2 x234 +4 x235 +8 x236 +16 x237  >= 0 ;
+1 x133 +2 x134 +4 x135 +8 x136 +16 x137 -1 x178 -2 x179 -4 x180 -8 x181 -16 x182 +12 x9 +1 x233 +2 x234 +4 x235 +8 x236 +16 x237  = 11 ;

+1 x238 +2 x239 +4 x240 +8 x241 +16 x242  >= 0 ;
+1 x133 +2 x134 +4 x135 +8 x136 +16 x137 -1 x183 -2 x184 -4 x185 -8 x186 -16 x187 +12 x10 +1 x238 +2 x239 +4 x240 +8 x241 +16 x242  = 11 ;

+1 x243 +2 x244 +4 x245 +8 x246 +16 x247  >= 0 ;
+1 x133 +2 x134 +4 x135 +8 x136 +16 x137 -1 x188 -2 x189 -4 x190 -8 x191 -16 x192 +12 x11 +1 x243 +2 x244 +4 x245 +8 x246 +16 x247  = 11 ;

+1 x248 +2 x249 +4 x250 +8 x251 +16 x252  >= 0 ;
+1 x138 +2 x139 +4 x140 +8 x141 +16 x142 -1 x133 -2 x134 -4 x135 -8 x136 -16 x137 +12 x12 +1 x248 +2 x249 +4 x250 +8 x251 +16 x252  = 11 ;

+1 x253 +2 x254 +4 x255 +8 x256 +16 x257  >= 0 ;
+1 x138 +2 x139 +4 x140 +8 x141 +16 x142 -1 x143 -2 x144 -4 x145 -8 x146 -16 x147 +12 x13 +1 x253 +2 x254 +4 x255 +8 x256 +16 x257  = 11 ;

+1 x258 +2 x259 +4 x260 +8 x261 +16 x262  >= 0 ;
+1 x138 +2 x139 +4 x140 +8 x141 +16 x142 -1 x148 -2 x149 -4 x150 -8 x151 -16 x152 +12 x14 +1 x258 +2 x259 +4 x260 +8 x261 +16 x262  = 11 ;

+1 x263 +2 x264 +4 x265 +8 x266 +16 x267  >= 0 ;
+1 x138 +2 x139 +4 x140 +8 x141 +16 x142 -1 x153 -2 x154 -4 x155 -8 x156 -16 x157 +12 x15 +1 x263 +2 x264 +4 x265 +8 x266 +16 x267  = 11 ;

+1 x268 +2 x269 +4 x270 +8 x271 +16 x272  >= 0 ;
+1 x138 +2 x139 +4 x140 +8 x141 +16 x142 -1 x158 -2 x159 -4 x160 -8 x161 -16 x162 +12 x16 +1 x268 +2 x269 +4 x270 +8 x271 +16 x272  = 11 ;

+1 x273 +2 x274 +4 x275 +8 x276 +16 x277  >= 0 ;
+1 x138 +2 x139 +4 x140 +8 x141 +16 x142 -1 x163 -2 x164 -4 x165 -8 x166 -16 x167 +12 x17 +1 x273 +2 x274 +4 x275 +8 x276 +16 x277  = 11 ;

+1 x278 +2 x279 +4 x280 +8 x281 +16 x282  >= 0 ;
+1 x138 +2 x139 +4 x140 +8 x141 +16 x142 -1 x168 -2 x169 -4 x170 -8 x171 -16 x172 +12 x18 +1 x278 +2 x279 +4 x280 +8 x281 +16 x282  = 11 ;

+1 x283 +2 x284 +4 x285 +8 x286 +16 x287  >= 0 ;
+1 x138 +2 x139 +4 x140 +8 x141 +16 x142 -1 x173 -2 x174 -4 x175 -8 x176 -16 x177 +12 x19 +1 x283 +2 x284 +4 x285 +8 x286 +16 x287  = 11 ;

+1 x288 +2 x289 +4 x290 +8 x291 +16 x292  >= 0 ;
+1 x138 +2 x139 +4 x140 +8 x141 +16 x142 -1 x178 -2 x179 -4 x180 -8 x181 -16 x182 +12 x20 +1 x288 +2 x289 +4 x290 +8 x291 +16 x292  = 11 ;

+1 x293 +2 x294 +4 x295 +8 x296 +16 x297  >= 0 ;
+1 x138 +2 x139 +4 x140 +8 x141 +16 x142 -1 x183 -2 x184 -4 x185 -8 x186 -16 x187 +12 x21 +1 x293 +2 x294 +4 x295 +8 x296 +16 x297  = 11 ;

+1 x298 +2 x299 +4 x300 +8 x301 +16 x302  >= 0 ;
+1 x138 +2 x139 +4 x140 +8 x141 +16 x142 -1 x188 -2 x189 -4 x190 -8 x191 -16 x192 +12 x22 +1 x298 +2 x299 +4 x300 +8 x301 +16 x302  = 11 ;

+1 x303 +2 x304 +4 x305 +8 x306 +16 x307  >= 0 ;
+1 x143 +2 x144 +4 x145 +8 x146 +16 x147 -1 x133 -2 x134 -4 x135 -8 x136 -16 x137 +12 x23 +1 x303 +2 x304 +4 x305 +8 x306 +16 x307  = 11 ;

+1 x308 +2 x309 +4 x310 +8 x311 +16 x312  >= 0 ;
+1 x143 +2 x144 +4 x145 +8 x146 +16 x147 -1 x138 -2 x139 -4 x140 -8 x141 -16 x142 +12 x24 +1 x308 +2 x309 +4 x310 +8 x311 +16 x312  = 11 ;

+1 x313 +2 x314 +4 x315 +8 x316 +16 x317  >= 0 ;
+1 x143 +2 x144 +4 x145 +8 x146 +16 x147 -1 x148 -2 x149 -4 x150 -8 x151 -16 x152 +12 x25 +1 x313 +2 x314 +4 x315 +8 x316 +16 x317  = 11 ;

+1 x318 +2 x319 +4 x320 +8 x321 +16 x322  >= 0 ;
+1 x143 +2 x144 +4 x145 +8 x146 +16 x147 -1 x153 -2 x154 -4 x155 -8 x156 -16 x157 +12 x26 +1 x318 +2 x319 +4 x320 +8 x321 +16 x322  = 11 ;

+1 x323 +2 x324 +4 x325 +8 x326 +16 x327  >= 0 ;
+1 x143 +2 x144 +4 x145 +8 x146 +16 x147 -1 x158 -2 x159 -4 x160 -8 x161 -16 x162 +12 x27 +1 x323 +2 x324 +4 x325 +8 x326 +16 x327  = 11 ;

+1 x328 +2 x329 +4 x330 +8 x331 +16 x332  >= 0 ;
+1 x143 +2 x144 +4 x145 +8 x146 +16 x147 -1 x163 -2 x164 -4 x165 -8 x166 -16 x167 +12 x28 +1 x328 +2 x329 +4 x330 +8 x331 +16 x332  = 11 ;

+1 x333 +2 x334 +4 x335 +8 x336 +16 x337  >= 0 ;
+1 x143 +2 x144 +4 x145 +8 x146 +16 x147 -1 x168 -2 x169 -4 x170 -8 x171 -16 x172 +12 x29 +1 x333 +2 x334 +4 x335 +8 x336 +16 x337  = 11 ;

+1 x338 +2 x339 +4 x340 +8 x341 +16 x342  >= 0 ;
+1 x143 +2 x144 +4 x145 +8 x146 +16 x147 -1 x173 -2 x174 -4 x175 -8 x176 -16 x177 +12 x30 +1 x338 +2 x339 +4 x340 +8 x341 +16 x342  = 11 ;

+1 x343 +2 x344 +4 x345 +8 x346 +16 x347  >= 0 ;
+1 x143 +2 x144 +4 x145 +8 x146 +16 x147 -1 x178 -2 x179 -4 x180 -8 x181 -16 x182 +12 x31 +1 x343 +2 x344 +4 x345 +8 x346 +16 x347  = 11 ;

+1 x348 +2 x349 +4 x350 +8 x351 +16 x352  >= 0 ;
+1 x143 +2 x144 +4 x145 +8 x146 +16 x147 -1 x183 -2 x184 -4 x185 -8 x186 -16 x187 +12 x32 +1 x348 +2 x349 +4 x350 +8 x351 +16 x352  = 11 ;

+1 x353 +2 x354 +4 x355 +8 x356 +16 x357  >= 0 ;
+1 x143 +2 x144 +4 x145 +8 x146 +16 x147 -1 x188 -2 x189 -4 x190 -8 x191 -16 x192 +12 x33 +1 x353 +2 x354 +4 x355 +8 x356 +16 x357  = 11 ;

+1 x358 +2 x359 +4 x360 +8 x361 +16 x362  >= 0 ;
+1 x148 +2 x149 +4 x150 +8 x151 +16 x152 -1 x133 -2 x134 -4 x135 -8 x136 -16 x137 +12 x34 +1 x358 +2 x359 +4 x360 +8 x361 +16 x362  = 11 ;

+1 x363 +2 x364 +4 x365 +8 x366 +16 x367  >= 0 ;
+1 x148 +2 x149 +4 x150 +8 x151 +16 x152 -1 x138 -2 x139 -4 x140 -8 x141 -16 x142 +12 x35 +1 x363 +2 x364 +4 x365 +8 x366 +16 x367  = 11 ;

+1 x368 +2 x369 +4 x370 +8 x371 +16 x372  >= 0 ;
+1 x148 +2 x149 +4 x150 +8 x151 +16 x152 -1 x143 -2 x144 -4 x145 -8 x146 -16 x147 +12 x36 +1 x368 +2 x369 +4 x370 +8 x371 +16 x372  = 11 ;

+1 x373 +2 x374 +4 x375 +8 x376 +16 x377  >= 0 ;
+1 x148 +2 x149 +4 x150 +8 x151 +16 x152 -1 x153 -2 x154 -4 x155 -8 x156 -16 x157 +12 x37 +1 x373 +2 x374 +4 x375 +8 x376 +16 x377  = 11 ;

+1 x378 +2 x379 +4 x380 +8 x381 +16 x382  >= 0 ;
+1 x148 +2 x149 +4 x150 +8 x151 +16 x152 -1 x158 -2 x159 -4 x160 -8 x161 -16 x162 +12 x38 +1 x378 +2 x379 +4 x380 +8 x381 +16 x382  = 11 ;

+1 x383 +2 x384 +4 x385 +8 x386 +16 x387  >= 0 ;
+1 x148 +2 x149 +4 x150 +8 x151 +16 x152 -1 x163 -2 x164 -4 x165 -8 x166 -16 x167 +12 x39 +1 x383 +2 x384 +4 x385 +8 x386 +16 x387  = 11 ;

+1 x388 +2 x389 +4 x390 +8 x391 +16 x392  >= 0 ;
+1 x148 +2 x149 +4 x150 +8 x151 +16 x152 -1 x168 -2 x169 -4 x170 -8 x171 -16 x172 +12 x40 +1 x388 +2 x389 +4 x390 +8 x391 +16 x392  = 11 ;

+1 x393 +2 x394 +4 x395 +8 x396 +16 x397  >= 0 ;
+1 x148 +2 x149 +4 x150 +8 x151 +16 x152 -1 x173 -2 x174 -4 x175 -8 x176 -16 x177 +12 x41 +1 x393 +2 x394 +4 x395 +8 x396 +16 x397  = 11 ;

+1 x398 +2 x399 +4 x400 +8 x401 +16 x402  >= 0 ;
+1 x148 +2 x149 +4 x150 +8 x151 +16 x152 -1 x178 -2 x179 -4 x180 -8 x181 -16 x182 +12 x42 +1 x398 +2 x399 +4 x400 +8 x401 +16 x402  = 11 ;

+1 x403 +2 x404 +4 x405 +8 x406 +16 x407  >= 0 ;
+1 x148 +2 x149 +4 x150 +8 x151 +16 x152 -1 x183 -2 x184 -4 x185 -8 x186 -16 x187 +12 x43 +1 x403 +2 x404 +4 x405 +8 x406 +16 x407  = 11 ;

+1 x408 +2 x409 +4 x410 +8 x411 +16 x412  >= 0 ;
+1 x148 +2 x149 +4 x150 +8 x151 +16 x152 -1 x188 -2 x189 -4 x190 -8 x191 -16 x192 +12 x44 +1 x408 +2 x409 +4 x410 +8 x411 +16 x412  = 11 ;

+1 x413 +2 x414 +4 x415 +8 x416 +16 x417  >= 0 ;
+1 x153 +2 x154 +4 x155 +8 x156 +16 x157 -1 x133 -2 x134 -4 x135 -8 x136 -16 x137 +12 x45 +1 x413 +2 x414 +4 x415 +8 x416 +16 x417  = 11 ;

+1 x418 +2 x419 +4 x420 +8 x421 +16 x422  >= 0 ;
+1 x153 +2 x154 +4 x155 +8 x156 +16 x157 -1 x138 -2 x139 -4 x140 -8 x141 -16 x142 +12 x46 +1 x418 +2 x419 +4 x420 +8 x421 +16 x422  = 11 ;

+1 x423 +2 x424 +4 x425 +8 x426 +16 x427  >= 0 ;
+1 x153 +2 x154 +4 x155 +8 x156 +16 x157 -1 x143 -2 x144 -4 x145 -8 x146 -16 x147 +12 x47 +1 x423 +2 x424 +4 x425 +8 x426 +16 x427  = 11 ;

+1 x428 +2 x429 +4 x430 +8 x431 +16 x432  >= 0 ;
+1 x153 +2 x154 +4 x155 +8 x156 +16 x157 -1 x148 -2 x149 -4 x150 -8 x151 -16 x152 +12 x48 +1 x428 +2 x429 +4 x430 +8 x431 +16 x432  = 11 ;

+1 x433 +2 x434 +4 x435 +8 x436 +16 x437  >= 0 ;
+1 x153 +2 x154 +4 x155 +8 x156 +16 x157 -1 x158 -2 x159 -4 x160 -8 x161 -16 x162 +12 x49 +1 x433 +2 x434 +4 x435 +8 x436 +16 x437  = 11 ;

+1 x438 +2 x439 +4 x440 +8 x441 +16 x442  >= 0 ;
+1 x153 +2 x154 +4 x155 +8 x156 +16 x157 -1 x163 -2 x164 -4 x165 -8 x166 -16 x167 +12 x50 +1 x438 +2 x439 +4 x440 +8 x441 +16 x442  = 11 ;

+1 x443 +2 x444 +4 x445 +8 x446 +16 x447  >= 0 ;
+1 x153 +2 x154 +4 x155 +8 x156 +16 x157 -1 x168 -2 x169 -4 x170 -8 x171 -16 x172 +12 x51 +1 x443 +2 x444 +4 x445 +8 x446 +16 x447  = 11 ;

+1 x448 +2 x449 +4 x450 +8 x451 +16 x452  >= 0 ;
+1 x153 +2 x154 +4 x155 +8 x156 +16 x157 -1 x173 -2 x174 -4 x175 -8 x176 -16 x177 +12 x52 +1 x448 +2 x449 +4 x450 +8 x451 +16 x452  = 11 ;

+1 x453 +2 x454 +4 x455 +8 x456 +16 x457  >= 0 ;
+1 x153 +2 x154 +4 x155 +8 x156 +16 x157 -1 x178 -2 x179 -4 x180 -8 x181 -16 x182 +12 x53 +1 x453 +2 x454 +4 x455 +8 x456 +16 x457  = 11 ;

+1 x458 +2 x459 +4 x460 +8 x461 +16 x462  >= 0 ;
+1 x153 +2 x154 +4 x155 +8 x156 +16 x157 -1 x183 -2 x184 -4 x185 -8 x186 -16 x187 +12 x54 +1 x458 +2 x459 +4 x460 +8 x461 +16 x462  = 11 ;

+1 x463 +2 x464 +4 x465 +8 x466 +16 x467  >= 0 ;
+1 x153 +2 x154 +4 x155 +8 x156 +16 x157 -1 x188 -2 x189 -4 x190 -8 x191 -16 x192 +12 x55 +1 x463 +2 x464 +4 x465 +8 x466 +16 x467  = 11 ;

+1 x468 +2 x469 +4 x470 +8 x471 +16 x472  >= 0 ;
+1 x158 +2 x159 +4 x160 +8 x161 +16 x162 -1 x133 -2 x134 -4 x135 -8 x136 -16 x137 +12 x56 +1 x468 +2 x469 +4 x470 +8 x471 +16 x472  = 11 ;

+1 x473 +2 x474 +4 x475 +8 x476 +16 x477  >= 0 ;
+1 x158 +2 x159 +4 x160 +8 x161 +16 x162 -1 x138 -2 x139 -4 x140 -8 x141 -16 x142 +12 x57 +1 x473 +2 x474 +4 x475 +8 x476 +16 x477  = 11 ;

+1 x478 +2 x479 +4 x480 +8 x481 +16 x482  >= 0 ;
+1 x158 +2 x159 +4 x160 +8 x161 +16 x162 -1 x143 -2 x144 -4 x145 -8 x146 -16 x147 +12 x58 +1 x478 +2 x479 +4 x480 +8 x481 +16 x482  = 11 ;

+1 x483 +2 x484 +4 x485 +8 x486 +16 x487  >= 0 ;
+1 x158 +2 x159 +4 x160 +8 x161 +16 x162 -1 x148 -2 x149 -4 x150 -8 x151 -16 x152 +12 x59 +1 x483 +2 x484 +4 x485 +8 x486 +16 x487  = 11 ;

+1 x488 +2 x489 +4 x490 +8 x491 +16 x492  >= 0 ;
+1 x158 +2 x159 +4 x160 +8 x161 +16 x162 -1 x153 -2 x154 -4 x155 -8 x156 -16 x157 +12 x60 +1 x488 +2 x489 +4 x490 +8 x491 +16 x492  = 11 ;

+1 x493 +2 x494 +4 x495 +8 x496 +16 x497  >= 0 ;
+1 x158 +2 x159 +4 x160 +8 x161 +16 x162 -1 x163 -2 x164 -4 x165 -8 x166 -16 x167 +12 x61 +1 x493 +2 x494 +4 x495 +8 x496 +16 x497  = 11 ;

+1 x498 +2 x499 +4 x500 +8 x501 +16 x502  >= 0 ;
+1 x158 +2 x159 +4 x160 +8 x161 +16 x162 -1 x168 -2 x169 -4 x170 -8 x171 -16 x172 +12 x62 +1 x498 +2 x499 +4 x500 +8 x501 +16 x502  = 11 ;

+1 x503 +2 x504 +4 x505 +8 x506 +16 x507  >= 0 ;
+1 x158 +2 x159 +4 x160 +8 x161 +16 x162 -1 x173 -2 x174 -4 x175 -8 x176 -16 x177 +12 x63 +1 x503 +2 x504 +4 x505 +8 x506 +16 x507  = 11 ;

+1 x508 +2 x509 +4 x510 +8 x511 +16 x512  >= 0 ;
+1 x158 +2 x159 +4 x160 +8 x161 +16 x162 -1 x178 -2 x179 -4 x180 -8 x181 -16 x182 +12 x64 +1 x508 +2 x509 +4 x510 +8 x511 +16 x512  = 11 ;

+1 x513 +2 x514 +4 x515 +8 x516 +16 x517  >= 0 ;
+1 x158 +2 x159 +4 x160 +8 x161 +16 x162 -1 x183 -2 x184 -4 x185 -8 x186 -16 x187 +12 x65 +1 x513 +2 x514 +4 x515 +8 x516 +16 x517  = 11 ;

+1 x518 +2 x519 +4 x520 +8 x521 +16 x522  >= 0 ;
+1 x158 +2 x159 +4 x160 +8 x161 +16 x162 -1 x188 -2 x189 -4 x190 -8 x191 -16 x192 +12 x66 +1 x518 +2 x519 +4 x520 +8 x521 +16 x522  = 11 ;

+1 x523 +2 x524 +4 x525 +8 x526 +16 x527  >= 0 ;
+1 x163 +2 x164 +4 x165 +8 x166 +16 x167 -1 x133 -2 x134 -4 x135 -8 x136 -16 x137 +12 x67 +1 x523 +2 x524 +4 x525 +8 x526 +16 x527  = 11 ;

+1 x528 +2 x529 +4 x530 +8 x531 +16 x532  >= 0 ;
+1 x163 +2 x164 +4 x165 +8 x166 +16 x167 -1 x138 -2 x139 -4 x140 -8 x141 -16 x142 +12 x68 +1 x528 +2 x529 +4 x530 +8 x531 +16 x532  = 11 ;

+1 x533 +2 x534 +4 x535 +8 x536 +16 x537  >= 0 ;
+1 x163 +2 x164 +4 x165 +8 x166 +16 x167 -1 x143 -2 x144 -4 x145 -8 x146 -16 x147 +12 x69 +1 x533 +2 x534 +4 x535 +8 x536 +16 x537  = 11 ;

+1 x538 +2 x539 +4 x540 +8 x541 +16 x542  >= 0 ;
+1 x163 +2 x164 +4 x165 +8 x166 +16 x167 -1 x148 -2 x149 -4 x150 -8 x151 -16 x152 +12 x70 +1 x538 +2 x539 +4 x540 +8 x541 +16 x542  = 11 ;

+1 x543 +2 x544 +4 x545 +8 x546 +16 x547  >= 0 ;
+1 x163 +2 x164 +4 x165 +8 x166 +16 x167 -1 x153 -2 x154 -4 x155 -8 x156 -16 x157 +12 x71 +1 x543 +2 x544 +4 x545 +8 x546 +16 x547  = 11 ;

+1 x548 +2 x549 +4 x550 +8 x551 +16 x552  >= 0 ;
+1 x163 +2 x164 +4 x165 +8 x166 +16 x167 -1 x158 -2 x159 -4 x160 -8 x161 -16 x162 +12 x72 +1 x548 +2 x549 +4 x550 +8 x551 +16 x552  = 11 ;

+1 x553 +2 x554 +4 x555 +8 x556 +16 x557  >= 0 ;
+1 x163 +2 x164 +4 x165 +8 x166 +16 x167 -1 x168 -2 x169 -4 x170 -8 x171 -16 x172 +12 x73 +1 x553 +2 x554 +4 x555 +8 x556 +16 x557  = 11 ;

+1 x558 +2 x559 +4 x560 +8 x561 +16 x562  >= 0 ;
+1 x163 +2 x164 +4 x165 +8 x166 +16 x167 -1 x173 -2 x174 -4 x175 -8 x176 -16 x177 +12 x74 +1 x558 +2 x559 +4 x560 +8 x561 +16 x562  = 11 ;

+1 x563 +2 x564 +4 x565 +8 x566 +16 x567  >= 0 ;
+1 x163 +2 x164 +4 x165 +8 x166 +16 x167 -1 x178 -2 x179 -4 x180 -8 x181 -16 x182 +12 x75 +1 x563 +2 x564 +4 x565 +8 x566 +16 x567  = 11 ;

+1 x568 +2 x569 +4 x570 +8 x571 +16 x572  >= 0 ;
+1 x163 +2 x164 +4 x165 +8 x166 +16 x167 -1 x183 -2 x184 -4 x185 -8 x186 -16 x187 +12 x76 +1 x568 +2 x569 +4 x570 +8 x571 +16 x572  = 11 ;

+1 x573 +2 x574 +4 x575 +8 x576 +16 x577  >= 0 ;
+1 x163 +2 x164 +4 x165 +8 x166 +16 x167 -1 x188 -2 x189 -4 x190 -8 x191 -16 x192 +12 x77 +1 x573 +2 x574 +4 x575 +8 x576 +16 x577  = 11 ;

+1 x578 +2 x579 +4 x580 +8 x581 +16 x582  >= 0 ;
+1 x168 +2 x169 +4 x170 +8 x171 +16 x172 -1 x133 -2 x134 -4 x135 -8 x136 -16 x137 +12 x78 +1 x578 +2 x579 +4 x580 +8 x581 +16 x582  = 11 ;

+1 x583 +2 x584 +4 x585 +8 x586 +16 x587  >= 0 ;
+1 x168 +2 x169 +4 x170 +8 x171 +16 x172 -1 x138 -2 x139 -4 x140 -8 x141 -16 x142 +12 x79 +1 x583 +2 x584 +4 x585 +8 x586 +16 x587  = 11 ;

+1 x588 +2 x589 +4 x590 +8 x591 +16 x592  >= 0 ;
+1 x168 +2 x169 +4 x170 +8 x171 +16 x172 -1 x143 -2 x144 -4 x145 -8 x146 -16 x147 +12 x80 +1 x588 +2 x589 +4 x590 +8 x591 +16 x592  = 11 ;

+1 x593 +2 x594 +4 x595 +8 x596 +16 x597  >= 0 ;
+1 x168 +2 x169 +4 x170 +8 x171 +16 x172 -1 x148 -2 x149 -4 x150 -8 x151 -16 x152 +12 x81 +1 x593 +2 x594 +4 x595 +8 x596 +16 x597  = 11 ;

+1 x598 +2 x599 +4 x600 +8 x601 +16 x602  >= 0 ;
+1 x168 +2 x169 +4 x170 +8 x171 +16 x172 -1 x153 -2 x154 -4 x155 -8 x156 -16 x157 +12 x82 +1 x598 +2 x599 +4 x600 +8 x601 +16 x602  = 11 ;

+1 x603 +2 x604 +4 x605 +8 x606 +16 x607  >= 0 ;
+1 x168 +2 x169 +4 x170 +8 x171 +16 x172 -1 x158 -2 x159 -4 x160 -8 x161 -16 x162 +12 x83 +1 x603 +2 x604 +4 x605 +8 x606 +16 x607  = 11 ;

+1 x608 +2 x609 +4 x610 +8 x611 +16 x612  >= 0 ;
+1 x168 +2 x169 +4 x170 +8 x171 +16 x172 -1 x163 -2 x164 -4 x165 -8 x166 -16 x167 +12 x84 +1 x608 +2 x609 +4 x610 +8 x611 +16 x612  = 11 ;

+1 x613 +2 x614 +4 x615 +8 x616 +16 x617  >= 0 ;
+1 x168 +2 x169 +4 x170 +8 x171 +16 x172 -1 x173 -2 x174 -4 x175 -8 x176 -16 x177 +12 x85 +1 x613 +2 x614 +4 x615 +8 x616 +16 x617  = 11 ;

+1 x618 +2 x619 +4 x620 +8 x621 +16 x622  >= 0 ;
+1 x168 +2 x169 +4 x170 +8 x171 +16 x172 -1 x178 -2 x179 -4 x180 -8 x181 -16 x182 +12 x86 +1 x618 +2 x619 +4 x620 +8 x621 +16 x622  = 11 ;

+1 x623 +2 x624 +4 x625 +8 x626 +16 x627  >= 0 ;
+1 x168 +2 x169 +4 x170 +8 x171 +16 x172 -1 x183 -2 x184 -4 x185 -8 x186 -16 x187 +12 x87 +1 x623 +2 x624 +4 x625 +8 x626 +16 x627  = 11 ;

+1 x628 +2 x629 +4 x630 +8 x631 +16 x632  >= 0 ;
+1 x168 +2 x169 +4 x170 +8 x171 +16 x172 -1 x188 -2 x189 -4 x190 -8 x191 -16 x192 +12 x88 +1 x628 +2 x629 +4 x630 +8 x631 +16 x632  = 11 ;

+1 x633 +2 x634 +4 x635 +8 x636 +16 x637  >= 0 ;
+1 x173 +2 x174 +4 x175 +8 x176 +16 x177 -1 x133 -2 x134 -4 x135 -8 x136 -16 x137 +12 x89 +1 x633 +2 x634 +4 x635 +8 x636 +16 x637  = 11 ;

+1 x638 +2 x639 +4 x640 +8 x641 +16 x642  >= 0 ;
+1 x173 +2 x174 +4 x175 +8 x176 +16 x177 -1 x138 -2 x139 -4 x140 -8 x141 -16 x142 +12 x90 +1 x638 +2 x639 +4 x640 +8 x641 +16 x642  = 11 ;

+1 x643 +2 x644 +4 x645 +8 x646 +16 x647  >= 0 ;
+1 x173 +2 x174 +4 x175 +8 x176 +16 x177 -1 x143 -2 x144 -4 x145 -8 x146 -16 x147 +12 x91 +1 x643 +2 x644 +4 x645 +8 x646 +16 x647  = 11 ;

+1 x648 +2 x649 +4 x650 +8 x651 +16 x652  >= 0 ;
+1 x173 +2 x174 +4 x175 +8 x176 +16 x177 -1 x148 -2 x149 -4 x150 -8 x151 -16 x152 +12 x92 +1 x648 +2 x649 +4 x650 +8 x651 +16 x652  = 11 ;

+1 x653 +2 x654 +4 x655 +8 x656 +16 x657  >= 0 ;
+1 x173 +2 x174 +4 x175 +8 x176 +16 x177 -1 x153 -2 x154 -4 x155 -8 x156 -16 x157 +12 x93 +1 x653 +2 x654 +4 x655 +8 x656 +16 x657  = 11 ;

+1 x658 +2 x659 +4 x660 +8 x661 +16 x662  >= 0 ;
+1 x173 +2 x174 +4 x175 +8 x176 +16 x177 -1 x158 -2 x159 -4 x160 -8 x161 -16 x162 +12 x94 +1 x658 +2 x659 +4 x660 +8 x661 +16 x662  = 11 ;

+1 x663 +2 x664 +4 x665 +8 x666 +16 x667  >= 0 ;
+1 x173 +2 x174 +4 x175 +8 x176 +16 x177 -1 x163 -2 x164 -4 x165 -8 x166 -16 x167 +12 x95 +1 x663 +2 x664 +4 x665 +8 x666 +16 x667  = 11 ;

+1 x668 +2 x669 +4 x670 +8 x671 +16 x672  >= 0 ;
+1 x173 +2 x174 +4 x175 +8 x176 +16 x177 -1 x168 -2 x169 -4 x170 -8 x171 -16 x172 +12 x96 +1 x668 +2 x669 +4 x670 +8 x671 +16 x672  = 11 ;

+1 x673 +2 x674 +4 x675 +8 x676 +16 x677  >= 0 ;
+1 x173 +2 x174 +4 x175 +8 x176 +16 x177 -1 x178 -2 x179 -4 x180 -8 x181 -16 x182 +12 x97 +1 x673 +2 x674 +4 x675 +8 x676 +16 x677  = 11 ;

+1 x678 +2 x679 +4 x680 +8 x681 +16 x682  >= 0 ;
+1 x173 +2 x174 +4 x175 +8 x176 +16 x177 -1 x183 -2 x184 -4 x185 -8 x186 -16 x187 +12 x98 +1 x678 +2 x679 +4 x680 +8 x681 +16 x682  = 11 ;

+1 x683 +2 x684 +4 x685 +8 x686 +16 x687  >= 0 ;
+1 x173 +2 x174 +4 x175 +8 x176 +16 x177 -1 x188 -2 x189 -4 x190 -8 x191 -16 x192 +12 x99 +1 x683 +2 x684 +4 x685 +8 x686 +16 x687  = 11 ;

+1 x688 +2 x689 +4 x690 +8 x691 +16 x692  >= 0 ;
+1 x178 +2 x179 +4 x180 +8 x181 +16 x182 -1 x133 -2 x134 -4 x135 -8 x136 -16 x137 +12 x100 +1 x688 +2 x689 +4 x690 +8 x691 +16 x692  = 11 ;

+1 x693 +2 x694 +4 x695 +8 x696 +16 x697  >= 0 ;
+1 x178 +2 x179 +4 x180 +8 x181 +16 x182 -1 x138 -2 x139 -4 x140 -8 x141 -16 x142 +12 x101 +1 x693 +2 x694 +4 x695 +8 x696 +16 x697  = 11 ;

+1 x698 +2 x699 +4 x700 +8 x701 +16 x702  >= 0 ;
+1 x178 +2 x179 +4 x180 +8 x181 +16 x182 -1 x143 -2 x144 -4 x145 -8 x146 -16 x147 +12 x102 +1 x698 +2 x699 +4 x700 +8 x701 +16 x702  = 11 ;

+1 x703 +2 x704 +4 x705 +8 x706 +16 x707  >= 0 ;
+1 x178 +2 x179 +4 x180 +8 x181 +16 x182 -1 x148 -2 x149 -4 x150 -8 x151 -16 x152 +12 x103 +1 x703 +2 x704 +4 x705 +8 x706 +16 x707  = 11 ;

+1 x708 +2 x709 +4 x710 +8 x711 +16 x712  >= 0 ;
+1 x178 +2 x179 +4 x180 +8 x181 +16 x182 -1 x153 -2 x154 -4 x155 -8 x156 -16 x157 +12 x104 +1 x708 +2 x709 +4 x710 +8 x711 +16 x712  = 11 ;

+1 x713 +2 x714 +4 x715 +8 x716 +16 x717  >= 0 ;
+1 x178 +2 x179 +4 x180 +8 x181 +16 x182 -1 x158 -2 x159 -4 x160 -8 x161 -16 x162 +12 x105 +1 x713 +2 x714 +4 x715 +8 x716 +16 x717  = 11 ;

+1 x718 +2 x719 +4 x720 +8 x721 +16 x722  >= 0 ;
+1 x178 +2 x179 +4 x180 +8 x181 +16 x182 -1 x163 -2 x164 -4 x165 -8 x166 -16 x167 +12 x106 +1 x718 +2 x719 +4 x720 +8 x721 +16 x722  = 11 ;

+1 x723 +2 x724 +4 x725 +8 x726 +16 x727  >= 0 ;
+1 x178 +2 x179 +4 x180 +8 x181 +16 x182 -1 x168 -2 x169 -4 x170 -8 x171 -16 x172 +12 x107 +1 x723 +2 x724 +4 x725 +8 x726 +16 x727  = 11 ;

+1 x728 +2 x729 +4 x730 +8 x731 +16 x732  >= 0 ;
+1 x178 +2 x179 +4 x180 +8 x181 +16 x182 -1 x173 -2 x174 -4 x175 -8 x176 -16 x177 +12 x108 +1 x728 +2 x729 +4 x730 +8 x731 +16 x732  = 11 ;

+1 x733 +2 x734 +4 x735 +8 x736 +16 x737  >= 0 ;
+1 x178 +2 x179 +4 x180 +8 x181 +16 x182 -1 x183 -2 x184 -4 x185 -8 x186 -16 x187 +12 x109 +1 x733 +2 x734 +4 x735 +8 x736 +16 x737  = 11 ;

+1 x738 +2 x739 +4 x740 +8 x741 +16 x742  >= 0 ;
+1 x178 +2 x179 +4 x180 +8 x181 +16 x182 -1 x188 -2 x189 -4 x190 -8 x191 -16 x192 +12 x110 +1 x738 +2 x739 +4 x740 +8 x741 +16 x742  = 11 ;

+1 x743 +2 x744 +4 x745 +8 x746 +16 x747  >= 0 ;
+1 x183 +2 x184 +4 x185 +8 x186 +16 x187 -1 x133 -2 x134 -4 x135 -8 x136 -16 x137 +12 x111 +1 x743 +2 x744 +4 x745 +8 x746 +16 x747  = 11 ;

+1 x748 +2 x749 +4 x750 +8 x751 +16 x752  >= 0 ;
+1 x183 +2 x184 +4 x185 +8 x186 +16 x187 -1 x138 -2 x139 -4 x140 -8 x141 -16 x142 +12 x112 +1 x748 +2 x749 +4 x750 +8 x751 +16 x752  = 11 ;

+1 x753 +2 x754 +4 x755 +8 x756 +16 x757  >= 0 ;
+1 x183 +2 x184 +4 x185 +8 x186 +16 x187 -1 x143 -2 x144 -4 x145 -8 x146 -16 x147 +12 x113 +1 x753 +2 x754 +4 x755 +8 x756 +16 x757  = 11 ;

+1 x758 +2 x759 +4 x760 +8 x761 +16 x762  >= 0 ;
+1 x183 +2 x184 +4 x185 +8 x186 +16 x187 -1 x148 -2 x149 -4 x150 -8 x151 -16 x152 +12 x114 +1 x758 +2 x759 +4 x760 +8 x761 +16 x762  = 11 ;

+1 x763 +2 x764 +4 x765 +8 x766 +16 x767  >= 0 ;
+1 x183 +2 x184 +4 x185 +8 x186 +16 x187 -1 x153 -2 x154 -4 x155 -8 x156 -16 x157 +12 x115 +1 x763 +2 x764 +4 x765 +8 x766 +16 x767  = 11 ;

+1 x768 +2 x769 +4 x770 +8 x771 +16 x772  >= 0 ;
+1 x183 +2 x184 +4 x185 +8 x186 +16 x187 -1 x158 -2 x159 -4 x160 -8 x161 -16 x162 +12 x116 +1 x768 +2 x769 +4 x770 +8 x771 +16 x772  = 11 ;

+1 x773 +2 x774 +4 x775 +8 x776 +16 x777  >= 0 ;
+1 x183 +2 x184 +4 x185 +8 x186 +16 x187 -1 x163 -2 x164 -4 x165 -8 x166 -16 x167 +12 x117 +1 x773 +2 x774 +4 x775 +8 x776 +16 x777  = 11 ;

+1 x778 +2 x779 +4 x780 +8 x781 +16 x782  >= 0 ;
+1 x183 +2 x184 +4 x185 +8 x186 +16 x187 -1 x168 -2 x169 -4 x170 -8 x171 -16 x172 +12 x118 +1 x778 +2 x779 +4 x780 +8 x781 +16 x782  = 11 ;

+1 x783 +2 x784 +4 x785 +8 x786 +16 x787  >= 0 ;
+1 x183 +2 x184 +4 x185 +8 x186 +16 x187 -1 x173 -2 x174 -4 x175 -8 x176 -16 x177 +12 x119 +1 x783 +2 x784 +4 x785 +8 x786 +16 x787  = 11 ;

+1 x788 +2 x789 +4 x790 +8 x791 +16 x792  >= 0 ;
+1 x183 +2 x184 +4 x185 +8 x186 +16 x187 -1 x178 -2 x179 -4 x180 -8 x181 -16 x182 +12 x120 +1 x788 +2 x789 +4 x790 +8 x791 +16 x792  = 11 ;

+1 x793 +2 x794 +4 x795 +8 x796 +16 x797  >= 0 ;
+1 x183 +2 x184 +4 x185 +8 x186 +16 x187 -1 x188 -2 x189 -4 x190 -8 x191 -16 x192 +12 x121 +1 x793 +2 x794 +4 x795 +8 x796 +16 x797  = 11 ;